Optimize a model with 1629 rows, 1344 columns and 6656 nonzeros
Variable types: 32 continuous, 1312 integer (1312 binary)
Coefficient statistics:
  Matrix range     [1e+00, 1e+01]
  Objective range  [1e+01, 4e+01]
  Bounds range     [1e+00, 4e+01]
  RHS range        [1e+00, 1e+01]
Presolve removed 1039 rows and 422 columns
Presolve time: 0.01s
Presolved: 590 rows, 922 columns, 3732 nonzeros
Variable types: 0 continuous, 922 integer (892 binary)

Root relaxation: objective 2.882400e+04, 402 iterations, 0.01 seconds

    Nodes    |    Current Node    |     Objective Bounds      |     Work
 Expl Unexpl |  Obj  Depth IntInf | Incumbent    BestBd   Gap | It/Node Time

     0     0 28824.0000    0    7          - 28824.0000      -     -    0s
H    0     0                    29250.000000 28824.0000  1.46%     -    0s
H    0     0                    29088.000000 28824.0000  0.91%     -    0s
     0     0 28824.0000    0   27 29088.0000 28824.0000  0.91%     -    0s
H    0     0                    28824.000000 28824.0000  0.00%     -    0s

Cutting planes:
  Gomory: 4
  Cover: 2
  MIR: 2
  StrongCG: 4

Explored 1 nodes (1546 simplex iterations) in 0.12 seconds
Thread count was 4 (of 4 available processors)

Solution count 3: 28824 29088 29250 

Optimal solution found (tolerance 1.00e-04)
Best objective 2.882400000000e+04, best bound 2.882400000000e+04, gap 0.0000%

Gurobi 8.1.1 (win64, Python) logging started 06/17/19 15:05:32

Academic license - for non-commercial use only
Warning: Gurobi version mismatch between Python 8.1.0 and C library 8.1.1
Optimize a model with 0 rows, 2 columns and 0 nonzeros
Model has 1 quadratic constraint
Coefficient statistics:
  Matrix range     [0e+00, 0e+00]
  QMatrix range    [1e+00, 1e+00]
  Objective range  [1e+00, 1e+00]
  Bounds range     [2e+00, 2e+00]
  RHS range        [0e+00, 0e+00]
  QRHS range       [1e+00, 1e+00]
Presolve removed 0 rows and 2 columns
Presolve time: 0.01s
Presolve: All rows and columns removed

Barrier solved model in 0 iterations and 0.01 seconds
Optimal objective 0.00000000e+00
Optimize a model with 0 rows, 2 columns and 0 nonzeros
Model has 1 quadratic constraint
Coefficient statistics:
  Matrix range     [0e+00, 0e+00]
  QMatrix range    [1e+00, 1e+00]
  Objective range  [1e+00, 1e+00]
  Bounds range     [2e+00, 2e+00]
  RHS range        [0e+00, 0e+00]
  QRHS range       [1e+00, 1e+00]
Presolve time: 0.01s
Presolved: 5 rows, 3 columns, 5 nonzeros
Presolved model has 1 second-order cone constraint
Ordering time: 0.00s

Barrier statistics:
 AA' NZ     : 1.000e+01
 Factor NZ  : 1.500e+01
 Factor Ops : 5.500e+01 (less than 1 second per iteration)
 Threads    : 1

                  Objective                Residual
Iter       Primal          Dual         Primal    Dual     Compl     Time
   0   1.33333333e+00  1.33333333e+00  1.44e+00 1.17e+00  2.47e+00     0s
   1   1.68057367e+00  3.71379662e+00  2.07e-01 1.29e-06  3.84e-01     0s
   2   1.39848188e+00  1.54191428e+00  0.00e+00 1.41e-12  1.79e-02     0s
   3   1.41415704e+00  1.41440698e+00  0.00e+00 2.45e-13  3.12e-05     0s
   4   1.41421345e+00  1.41421389e+00  0.00e+00 1.33e-11  5.60e-08     0s

Barrier solved model in 4 iterations and 0.02 seconds
Optimal objective 1.41421345e+00

Optimize a model with 0 rows, 2 columns and 0 nonzeros
Model has 1 quadratic constraint
Coefficient statistics:
  Matrix range     [0e+00, 0e+00]
  QMatrix range    [1e+00, 1e+00]
  Objective range  [1e+00, 1e+00]
  Bounds range     [2e+00, 2e+00]
  RHS range        [0e+00, 0e+00]
  QRHS range       [1e+00, 1e+00]
Presolve time: 0.01s
Presolved: 5 rows, 3 columns, 5 nonzeros
Presolved model has 1 second-order cone constraint
Ordering time: 0.00s

Barrier statistics:
 AA' NZ     : 1.000e+01
 Factor NZ  : 1.500e+01
 Factor Ops : 5.500e+01 (less than 1 second per iteration)
 Threads    : 1

                  Objective                Residual
Iter       Primal          Dual         Primal    Dual     Compl     Time
   0   1.33333333e+00  1.33333333e+00  1.44e+00 1.17e+00  2.47e+00     0s
   1   1.68057367e+00  3.71379662e+00  2.07e-01 1.29e-06  3.84e-01     0s
   2   1.39848188e+00  1.54191428e+00  0.00e+00 1.41e-12  1.79e-02     0s
   3   1.41415704e+00  1.41440698e+00  0.00e+00 2.45e-13  3.12e-05     0s
   4   1.41421345e+00  1.41421389e+00  0.00e+00 1.33e-11  5.60e-08     0s

Barrier solved model in 4 iterations and 0.02 seconds
Optimal objective 1.41421345e+00


Gurobi 8.1.1 (win64, Python) logging started 06/20/19 12:39:08

Academic license - for non-commercial use only
Warning: Gurobi version mismatch between Python 8.1.0 and C library 8.1.1
Parameter OutputFlag unchanged
   Value: 1  Min: 0  Max: 1  Default: 1
Changed value of parameter QCPDual to 1
   Prev: 0  Min: 0  Max: 1  Default: 0
Optimize a model with 11 rows, 10 columns and 18 nonzeros
Model has 2 quadratic constraints
Coefficient statistics:
  Matrix range     [1e+00, 2e+00]
  QMatrix range    [1e+00, 1e+00]
  Objective range  [1e+00, 1e+00]
  Bounds range     [0e+00, 0e+00]
  RHS range        [1e+00, 1e+01]
Presolve removed 8 rows and 4 columns
Presolve time: 0.02s
Presolved: 7 rows, 6 columns, 10 nonzeros
Presolved model has 2 second-order cone constraints
Ordering time: 0.00s

Barrier statistics:
 AA' NZ     : 1.200e+01
 Factor NZ  : 2.800e+01
 Factor Ops : 1.400e+02 (less than 1 second per iteration)
 Threads    : 1

                  Objective                Residual
Iter       Primal          Dual         Primal    Dual     Compl     Time
   0  -6.66666667e+00 -6.66666667e+00  3.69e+01 4.16e-01  6.17e+00     0s
   1  -6.16146435e+00 -8.91812994e+00  1.00e+01 4.57e-07  1.05e+00     0s
   2  -1.59247698e+00 -1.71645363e+00  4.00e-01 2.51e-09  3.79e-02     0s
   3  -1.42130875e+00 -1.42245521e+00  1.25e-02 1.81e-14  7.96e-04     0s
   4  -1.41426783e+00 -1.41422327e+00  1.02e-04 2.95e-12  1.45e-06     0s
   5  -1.41421362e+00 -1.41421367e+00  1.87e-07 5.18e-10  1.46e-08     0s

Barrier solved model in 5 iterations and 0.03 seconds
Optimal objective -1.41421362e+00

Solving KKT system to obtain QCP duals...

Optimize a model with 13 rows, 10 columns and 24 nonzeros
Coefficient statistics:
  Matrix range     [1e+00, 3e+00]
  Objective range  [1e+00, 3e+00]
  QObjective range [2e+00, 2e+00]
  Bounds range     [0e+00, 0e+00]
  RHS range        [1e-07, 1e+01]
Presolve removed 4 rows and 0 columns
Presolve time: 0.05s
Presolved: 9 rows, 10 columns, 20 nonzeros
Ordering time: 0.00s

Barrier statistics:
 AA' NZ     : 1.200e+01
 Factor NZ  : 4.500e+01
 Factor Ops : 2.850e+02 (less than 1 second per iteration)
 Threads    : 1

                  Objective                Residual
Iter       Primal          Dual         Primal    Dual     Compl     Time
   0   2.01992486e+06 -2.15014638e+06  2.01e+03 9.93e+02  1.00e+06     0s
   1   2.66253601e+05 -3.49340908e+05  7.55e+02 2.50e+02  2.70e+05     0s
   2   2.37763523e+02 -7.82296387e+04  1.99e+01 9.18e+00  1.52e+04     0s
   3   2.88599562e+00 -2.15497012e+04  9.24e-06 9.18e-06  1.44e+03     0s
   4   2.87974431e+00 -4.20696432e+01  1.00e-08 9.98e-09  3.00e+00     0s
   5   4.66696106e-02 -5.00391462e+00  1.03e-14 1.02e-14  3.37e-01     0s
   6  -1.15738202e+00 -1.67787731e+00  4.44e-16 0.00e+00  3.47e-02     0s
   7  -1.38199696e+00 -1.41941199e+00  0.00e+00 1.11e-16  2.49e-03     0s
   8  -1.41344902e+00 -1.41425443e+00  0.00e+00 2.22e-16  5.37e-05     0s
   9  -1.41421280e+00 -1.41421360e+00  0.00e+00 2.22e-16  5.36e-08     0s
  10  -1.41421356e+00 -1.41421356e+00  0.00e+00 2.22e-16  5.36e-11     0s

Barrier solved model in 10 iterations and 0.05 seconds
Optimal objective -1.41421356e+00



Gurobi 8.1.1 (win64, Python) logging started 08/15/19 13:14:34

Academic license - for non-commercial use only
Warning: Gurobi version mismatch between Python 8.1.0 and C library 8.1.1
Optimize a model with 1629 rows, 1344 columns and 6656 nonzeros
Variable types: 32 continuous, 1312 integer (1312 binary)
Coefficient statistics:
  Matrix range     [1e+00, 1e+01]
  Objective range  [1e+01, 4e+01]
  Bounds range     [1e+00, 4e+01]
  RHS range        [1e+00, 1e+01]
Presolve removed 1039 rows and 422 columns
Presolve time: 0.01s
Presolved: 590 rows, 922 columns, 3732 nonzeros
Variable types: 0 continuous, 922 integer (892 binary)

Root relaxation: objective 2.882400e+04, 402 iterations, 0.01 seconds

    Nodes    |    Current Node    |     Objective Bounds      |     Work
 Expl Unexpl |  Obj  Depth IntInf | Incumbent    BestBd   Gap | It/Node Time

     0     0 28824.0000    0    7          - 28824.0000      -     -    0s
H    0     0                    29250.000000 28824.0000  1.46%     -    0s
H    0     0                    29088.000000 28824.0000  0.91%     -    0s
     0     0 28824.0000    0   27 29088.0000 28824.0000  0.91%     -    0s
H    0     0                    28824.000000 28824.0000  0.00%     -    0s

Cutting planes:
  Gomory: 4
  Cover: 2
  MIR: 2
  StrongCG: 4

Explored 1 nodes (1546 simplex iterations) in 0.07 seconds
Thread count was 4 (of 4 available processors)

Solution count 3: 28824 29088 29250 

Optimal solution found (tolerance 1.00e-04)
Best objective 2.882400000000e+04, best bound 2.882400000000e+04, gap 0.0000%
Optimize a model with 15475 rows, 7680 columns and 52341 nonzeros
Variable types: 1920 continuous, 5760 integer (5760 binary)
Coefficient statistics:
  Matrix range     [1e+00, 4e+02]
  Objective range  [2e+01, 5e+03]
  Bounds range     [1e+00, 1e+00]
  RHS range        [1e+00, 1e+03]
Presolve removed 4563 rows and 1578 columns
Presolve time: 0.10s
Presolved: 10912 rows, 6102 columns, 44785 nonzeros
Variable types: 1918 continuous, 4184 integer (4184 binary)
Found heuristic solution: objective 1.422235e+07

Root relaxation: objective 1.418042e+07, 2105 iterations, 0.02 seconds

    Nodes    |    Current Node    |     Objective Bounds      |     Work
 Expl Unexpl |  Obj  Depth IntInf | Incumbent    BestBd   Gap | It/Node Time

     0     0 1.4180e+07    0  413 1.4222e+07 1.4180e+07  0.29%     -    0s
H    0     0                    1.421973e+07 1.4180e+07  0.28%     -    0s
     0     0 1.4212e+07    0   73 1.4220e+07 1.4212e+07  0.05%     -    0s
H    0     0                    1.421817e+07 1.4212e+07  0.04%     -    0s
     0     0 1.4212e+07    0   55 1.4218e+07 1.4212e+07  0.04%     -    0s
*    0     0               0    1.421308e+07 1.4213e+07  0.00%     -    0s

Cutting planes:
  Gomory: 3
  Cover: 227
  Implied bound: 242
  Clique: 107
  MIR: 49
  StrongCG: 17
  Flow cover: 105
  GUB cover: 2

Explored 1 nodes (2659 simplex iterations) in 0.53 seconds
Thread count was 4 (of 4 available processors)

Solution count 4: 1.42131e+07 1.42182e+07 1.42197e+07 1.42224e+07 

Optimal solution found (tolerance 1.00e-04)
Best objective 1.421308206390e+07, best bound 1.421308206390e+07, gap 0.0000%
